c preprocessed version of BN_99, 47 vertices, 241 edges
p td 47 241
0 1
0 2
0 3
0 7
0 9
0 10
0 6
0 21
29 0
28 0
24 0
38 0
36 0
37 0
1 2
1 8
1 7
1 9
1 22
29 1
28 1
23 1
41 1
38 1
31 1
32 1
2 3
2 8
2 7
2 9
2 10
2 11
2 15
29 2
40 2
28 2
41 2
38 2
3 4
29 3
28 3
24 3
38 3
4 5
14 4
4 35
30 4
38 4
31 4
34 4
33 4
6 5
10 5
15 5
35 5
5 16
31 5
34 5
39 5
7 6
10 6
6 12
6 19
6 22
6 15
6 18
6 13
26 6
31 6
33 6
8 7
7 9
7 10
7 14
40 7
28 7
42 7
26 7
8 9
8 10
8 11
29 8
40 8
28 8
24 8
38 8
34 8
9 10
9 21
42 9
26 9
10 11
10 14
10 13
40 10
31 10
34 10
36 10
37 10
11 12
11 35
40 11
24 11
34 11
36 11
13 12
26 12
14 13
24 13
26 13
34 13
36 13
14 15
14 22
14 35
40 14
24 14
34 14
33 14
15 16
22 15
15 35
40 15
41 15
33 15
16 17
29 16
40 16
17 18
23 17
29 17
40 17
19 18
23 18
20 19
23 19
34 19
21 20
27 20
23 20
26 20
34 20
33 20
22 21
33 21
36 21
23 22
22 35
29 22
28 22
41 22
33 22
36 22
24 23
42 23
41 23
34 23
25 24
24 29
24 35
24 28
24 42
38 24
34 24
36 24
37 24
25 26
31 25
38 25
25 41
37 25
26 27
26 42
41 26
28 27
36 27
28 29
38 28
36 28
29 30
29 40
38 29
31 30
40 30
32 31
38 31
33 32
34 32
34 33
34 35
36 34
36 35
39 35
36 37
36 39
37 38
39 37
39 38
41 40
43 1
43 2
43 3
43 4
43 9
43 10
43 11
43 20
43 45
43 30
43 27
43 26
43 38
43 31
43 44
43 39
44 5
44 45
44 16
44 15
44 14
44 13
44 24
44 22
44 21
44 46
44 36
45 46
45 1
45 6
45 19
45 18
45 31
45 32
46 43
46 0
46 9
46 11
46 20
46 12
46 21
46 33
